69 82 99 58 59 11 15 55 68 
64 95 31 50 56 66 
30 28 40 54 91 80 
42 44 35 36 38 41 45 4 1 
88 98 53 12 10 14 17 78 60 100 
23 21 77 86 22 20 74 
92 19 51 76 85 84 24 
65 67 33 29 27 34 32 93 
5 71 94 96 39 
52 83 13 9 87 25 
62 72 61 70 46 6 
2 79 73 7 8 3 
47 16 75 97 48 
63 90 81 37 
49 18 89 
57 43 
26 

